(declare-const b Real)
(declare-const a Real)
(declare-const c Real)
(assert (< 0 a))
(assert (< 0 b))
(assert (< 0 c))
(assert (= (* a b c) 1))
(assert (not (<= (+ (/ 1 3) (* -27 (pow (+ (* a (pow c (/ 5 2))) (* b (pow a (/ 5 2))) (* c (pow b (/ 5 2))) (* 2 a (pow b (/ 5 2))) (* 2 b (pow c (/ 5 2))) (* 2 c (pow a (/ 5 2)))) -2))) 0)))
(check-sat)
(get-model)
(exit)